N = 5;
H = 5;
T = 2;

avail = array3d(1..N, 1..H, 1..T, [7, 7, 8, 7, 3, 7, 10, 9, 6, 6, 8, 5, 8, 5, 8, 10, 2, 5, 7, 7, 9, 5, 5, 10, 0, 10, 3, 7, 9, 3, 10, 0, 10, 5, 4, 10, 5, 2, 3, 2, 7, 10, 0, 9, 4, 6, 3, 2, 4, 8]);

r = array2d(1..H, 1..T, [1, 1, 1, 0, 2, 1, 1, 0, 0, 0]);
